(set-option :print-success false)
(set-logic QF_UF)
(declare-sort x103 0)
(declare-sort x47 0)
(declare-fun x50 () x47)
(declare-fun x141 () x47)
(declare-fun x104 () x47)
(declare-fun x96 () x47)
(declare-fun x132 (x47 x47) x47)
(declare-fun x37 () x47)
(assert (not (and (= x50 (x132 x96 x104)) (and (and (= x37 (x132 x104 x50)) (= (x132 x50 x50) x141)) (= (x132 x104 x104) x96)))))
(assert (not (and (and (and (= x96 (x132 x141 x104)) (= x50 (x132 x104 x104))) (= (x132 x141 x141) x37)) (= x104 (x132 x37 x141)))))
(assert (not (and (and (= (x132 x37 x37) x96) (and (= x104 (x132 x50 x50)) (= x141 (x132 x37 x50)))) (= (x132 x96 x37) x50))))
(assert (not (and (= (x132 x50 x37) x104) (and (= (x132 x37 x37) x50) (and (= (x132 x37 x104) x141) (= (x132 x104 x104) x96))))))
(assert (not (and (= (x132 x141 x96) x50) (and (and (= (x132 x96 x50) x104) (= (x132 x50 x50) x37)) (= x141 (x132 x96 x96))))))
(assert (not (and (and (and (= (x132 x141 x141) x50) (= x96 (x132 x104 x141))) (= x37 (x132 x104 x104))) (= (x132 x37 x104) x141))))
(assert (not (and (and (and (= (x132 x50 x37) x104) (= (x132 x37 x37) x96)) (= x141 (x132 x50 x50))) (= x37 (x132 x141 x50)))))
(assert (not (and (and (and (= (x132 x96 x96) x37) (= (x132 x141 x96) x50)) (= (x132 x141 x141) x104)) (= x96 (x132 x104 x141)))))
(assert (not (and (and (= x50 (x132 x141 x141)) (and (= x96 (x132 x141 x104)) (= x37 (x132 x104 x104)))) (= (x132 x50 x141) x104))))
(assert (not (and (and (= x37 (x132 x141 x141)) (and (= x50 (x132 x141 x96)) (= (x132 x96 x96) x104))) (= (x132 x37 x141) x96))))
(assert (not (and (and (and (= x104 (x132 x50 x96)) (= x37 (x132 x96 x96))) (= (x132 x50 x50) x141)) (= x96 (x132 x141 x50)))))
(assert (not (and (= (x132 x141 x104) x50) (and (and (= (x132 x50 x50) x37) (= (x132 x104 x50) x96)) (= x141 (x132 x104 x104))))))
(assert (not (and (and (and (= (x132 x141 x141) x104) (= (x132 x37 x141) x50)) (= (x132 x37 x37) x96)) (= (x132 x96 x37) x141))))
(assert (not (and (and (and (= (x132 x104 x104) x37) (= x96 (x132 x50 x104))) (= x141 (x132 x50 x50))) (= x104 (x132 x141 x50)))))
(assert (or (or (and (not (= (x132 x141 (x132 x141 x37)) x37)) (and (and (not (= x104 (x132 x141 (x132 x141 x104)))) (and (not (= x50 (x132 x141 (x132 x141 x50)))) (not (= x96 (x132 x141 (x132 x141 x96)))))) (not (= (x132 x141 (x132 x141 x141)) x141)))) (or (or (and (not (= (x132 x96 (x132 x96 x37)) x37)) (and (not (= x141 (x132 x96 (x132 x96 x141)))) (and (not (= x104 (x132 x96 (x132 x96 x104)))) (and (not (= x50 (x132 x96 (x132 x96 x50)))) (not (= x96 (x132 x96 (x132 x96 x96)))))))) (and (not (= (x132 x50 (x132 x50 x37)) x37)) (and (not (= x141 (x132 x50 (x132 x50 x141)))) (and (and (not (= x50 (x132 x50 (x132 x50 x50)))) (not (= (x132 x50 (x132 x50 x96)) x96))) (not (= (x132 x50 (x132 x50 x104)) x104)))))) (and (not (= x37 (x132 x104 (x132 x104 x37)))) (and (not (= (x132 x104 (x132 x104 x141)) x141)) (and (not (= x104 (x132 x104 (x132 x104 x104)))) (and (not (= x96 (x132 x104 (x132 x104 x96)))) (not (= (x132 x104 (x132 x104 x50)) x50)))))))) (and (not (= x37 (x132 x37 (x132 x37 x37)))) (and (and (and (not (= (x132 x37 (x132 x37 x96)) x96)) (not (= (x132 x37 (x132 x37 x50)) x50))) (not (= (x132 x37 (x132 x37 x104)) x104))) (not (= (x132 x37 (x132 x37 x141)) x141))))))
(assert (not (and (and (and (= x37 (x132 x141 x96)) (= x50 (x132 x96 x96))) (= x104 (x132 x141 x141))) (= (x132 x104 x141) x96))))
(assert (not (and (and (= (x132 x50 x50) x104) (and (= x37 (x132 x50 x96)) (= x141 (x132 x96 x96)))) (= x96 (x132 x104 x50)))))
(assert (not (and (and (= x37 (x132 x141 x141)) (and (= (x132 x50 x50) x104) (= x96 (x132 x141 x50)))) (= x50 (x132 x37 x141)))))
(assert (not (and (and (= (x132 x96 x96) x141) (and (= x50 (x132 x96 x104)) (= (x132 x104 x104) x37))) (= x104 (x132 x141 x96)))))
(assert (not (and (and (and (= x96 (x132 x37 x37)) (= x141 (x132 x104 x37))) (= (x132 x104 x104) x50)) (= (x132 x50 x104) x37))))
(assert (not (and (and (and (= x50 (x132 x141 x37)) (= x104 (x132 x37 x37))) (= x96 (x132 x141 x141))) (= x37 (x132 x96 x141)))))
(assert (not (and (= x96 (x132 x50 x37)) (and (and (= (x132 x37 x96) x104) (= (x132 x96 x96) x141)) (= (x132 x37 x37) x50)))))
(assert (not (and (= x50 (x132 x104 x37)) (and (and (= x96 (x132 x50 x50)) (= x141 (x132 x37 x50))) (= (x132 x37 x37) x104)))))
(assert (not (and (= x141 (x132 x37 x96)) (and (= (x132 x96 x96) x37) (and (= (x132 x141 x141) x50) (= (x132 x96 x141) x104))))))
(assert (not (and (and (= (x132 x96 x96) x141) (and (= x104 (x132 x50 x50)) (= x37 (x132 x96 x50)))) (= (x132 x141 x96) x50))))
(assert (not (and (and (= x141 (x132 x104 x104)) (and (= x96 (x132 x104 x37)) (= x50 (x132 x37 x37)))) (= x37 (x132 x141 x104)))))
(assert (not (and (and (= x37 (x132 x50 x50)) (and (= (x132 x50 x104) x96) (= (x132 x104 x104) x141))) (= x104 (x132 x37 x50)))))
(assert (not (and (and (and (= (x132 x96 x50) x104) (= x141 (x132 x50 x50))) (= (x132 x96 x96) x37)) (= x50 (x132 x37 x96)))))
(assert (not (and (= x50 (x132 x37 x96)) (and (and (= x104 (x132 x50 x50)) (= x141 (x132 x96 x50))) (= x37 (x132 x96 x96))))))
(assert (not (and (= x104 (x132 x96 x37)) (and (= x96 (x132 x37 x37)) (and (= x50 (x132 x37 x104)) (= (x132 x104 x104) x141))))))
(assert (not (and (and (= x50 (x132 x141 x141)) (and (= (x132 x141 x96) x104) (= (x132 x96 x96) x37))) (= x96 (x132 x50 x141)))))
(assert (not (and (= x96 (x132 x50 x104)) (and (and (= (x132 x104 x96) x37) (= x141 (x132 x96 x96))) (= x50 (x132 x104 x104))))))
(assert (not (and (= (x132 x96 x104) x50) (and (and (= (x132 x104 x50) x141) (= (x132 x50 x50) x37)) (= (x132 x104 x104) x96)))))
(assert (and (not (= x141 x37)) (and (not (= x37 x104)) (and (not (= x104 x141)) (and (not (= x96 x37)) (and (not (= x141 x96)) (and (and (and (and (not (= x104 x50)) (not (= x96 x50))) (not (= x50 x141))) (not (= x50 x37))) (not (= x96 x104)))))))))
(assert (not (and (and (= (x132 x96 x96) x104) (and (= x37 (x132 x141 x141)) (= x50 (x132 x96 x141)))) (= x141 (x132 x104 x96)))))
(assert (not (and (and (and (= x104 (x132 x37 x37)) (= (x132 x50 x37) x96)) (= (x132 x50 x50) x141)) (= x37 (x132 x141 x50)))))
(assert (not (and (= (x132 x141 x104) x37) (and (and (= (x132 x37 x37) x96) (= (x132 x104 x37) x50)) (= x141 (x132 x104 x104))))))
(assert (not (and (= x141 (x132 x37 x96)) (and (and (= (x132 x96 x141) x50) (= (x132 x141 x141) x104)) (= (x132 x96 x96) x37)))))
(assert (not (and (and (and (= (x132 x104 x96) x50) (= (x132 x96 x96) x141)) (= x37 (x132 x104 x104))) (= (x132 x37 x104) x96))))
(assert (let ((x83 (x132 x96 x96)) (x136 (x132 x104 x104)) (x79 (x132 x141 x141)) (x33 (x132 x37 x37)) (x6 (x132 x50 x50))) (and (not (= (x132 x33 x33) x37)) (and (not (= (x132 x79 x79) x141)) (and (and (not (= x50 (x132 x6 x6))) (not (= x96 (x132 x83 x83)))) (not (= (x132 x136 x136) x104)))))))
(assert (or (or (or (or (= x50 (x132 x50 (x132 x50 x50))) (= x96 (x132 x96 (x132 x96 x96)))) (= (x132 x104 (x132 x104 x104)) x104)) (= (x132 x141 (x132 x141 x141)) x141)) (= x37 (x132 x37 (x132 x37 x37)))))
(assert (not (and (and (= (x132 x141 x141) x96) (and (= (x132 x104 x104) x37) (= (x132 x141 x104) x50))) (= (x132 x96 x141) x104))))
(assert (not (and (and (= (x132 x96 x96) x141) (and (= x50 (x132 x37 x37)) (= x104 (x132 x96 x37)))) (= x37 (x132 x141 x96)))))
(assert (not (and (and (and (= x37 (x132 x141 x50)) (= x104 (x132 x50 x50))) (= x96 (x132 x141 x141))) (= x50 (x132 x96 x141)))))
(assert (not (and (= (x132 x96 x50) x37) (and (= (x132 x50 x50) x96) (and (= x141 (x132 x37 x37)) (= x104 (x132 x50 x37)))))))
(assert (not (and (= x37 (x132 x96 x141)) (and (and (= (x132 x37 x37) x50) (= x104 (x132 x141 x37))) (= x96 (x132 x141 x141))))))
(assert (not (and (and (= (x132 x104 x104) x96) (and (= (x132 x37 x37) x141) (= (x132 x104 x37) x50))) (= x37 (x132 x96 x104)))))
(assert (not (and (= (x132 x104 x50) x37) (and (= x104 (x132 x50 x50)) (and (= (x132 x50 x37) x141) (= (x132 x37 x37) x96))))))
(assert (not (and (= x37 (x132 x104 x50)) (and (= x104 (x132 x50 x50)) (and (= (x132 x50 x37) x96) (= x141 (x132 x37 x37)))))))
(assert (not (and (and (and (= (x132 x141 x141) x96) (= x50 (x132 x104 x141))) (= x37 (x132 x104 x104))) (= x141 (x132 x37 x104)))))
(assert (not (and (= (x132 x141 x37) x96) (and (= (x132 x37 x37) x141) (and (= (x132 x37 x96) x104) (= (x132 x96 x96) x50))))))
(assert (not (and (= (x132 x141 x50) x96) (and (= x141 (x132 x50 x50)) (and (= x37 (x132 x50 x96)) (= x104 (x132 x96 x96)))))))
(assert (not (and (= x104 (x132 x50 x37)) (and (= x50 (x132 x37 x37)) (and (= x96 (x132 x37 x104)) (= (x132 x104 x104) x141))))))
(assert (or (and (not (= (x132 x37 x37) x37)) (and (and (not (= x104 (x132 x104 x37))) (and (not (= x50 (x132 x50 x37))) (not (= (x132 x96 x37) x96)))) (not (= x141 (x132 x141 x37))))) (or (or (and (and (and (and (not (= (x132 x96 x104) x96)) (not (= (x132 x50 x104) x50))) (not (= x104 (x132 x104 x104)))) (not (= (x132 x141 x104) x141))) (not (= (x132 x37 x104) x37))) (or (and (and (and (not (= (x132 x104 x50) x104)) (and (not (= x96 (x132 x96 x50))) (not (= x50 (x132 x50 x50))))) (not (= x141 (x132 x141 x50)))) (not (= x37 (x132 x37 x50)))) (and (not (= (x132 x37 x96) x37)) (and (and (not (= (x132 x104 x96) x104)) (and (not (= (x132 x50 x96) x50)) (not (= (x132 x96 x96) x96)))) (not (= x141 (x132 x141 x96))))))) (and (not (= x37 (x132 x37 x141))) (and (and (and (not (= (x132 x96 x141) x96)) (not (= (x132 x50 x141) x50))) (not (= x104 (x132 x104 x141)))) (not (= (x132 x141 x141) x141)))))))
(assert (not (and (and (= x50 (x132 x96 x96)) (and (= (x132 x37 x37) x104) (= (x132 x96 x37) x141))) (= (x132 x50 x96) x37))))
(assert (not (and (and (and (= (x132 x50 x50) x96) (= x104 (x132 x141 x50))) (= x37 (x132 x141 x141))) (= x50 (x132 x37 x141)))))
(assert (not (and (= (x132 x37 x96) x104) (and (and (= (x132 x104 x104) x50) (= (x132 x96 x104) x141)) (= (x132 x96 x96) x37)))))
(assert (not (and (= (x132 x141 x96) x37) (and (= x141 (x132 x96 x96)) (and (= (x132 x37 x37) x104) (= x50 (x132 x96 x37)))))))
(assert (not (and (and (and (= (x132 x104 x37) x96) (= (x132 x37 x37) x141)) (= x50 (x132 x104 x104))) (= (x132 x50 x104) x37))))
(assert (not (and (and (and (= (x132 x37 x96) x141) (= x104 (x132 x96 x96))) (= (x132 x37 x37) x50)) (= (x132 x50 x37) x96))))
(assert (not (and (and (and (= (x132 x50 x141) x104) (= (x132 x141 x141) x96)) (= (x132 x50 x50) x37)) (= (x132 x37 x50) x141))))
(assert (not (and (and (= (x132 x96 x96) x50) (and (= (x132 x96 x104) x37) (= x141 (x132 x104 x104)))) (= x104 (x132 x50 x96)))))
(assert (not (and (and (and (= (x132 x96 x96) x104) (= x37 (x132 x141 x96))) (= (x132 x141 x141) x50)) (= (x132 x50 x141) x96))))
(assert (and (and (and (not (= x104 (x132 x104 x104))) (and (not (= (x132 x50 x50) x50)) (not (= x96 (x132 x96 x96))))) (not (= (x132 x141 x141) x141))) (not (= x37 (x132 x37 x37)))))
(assert (not (and (and (= (x132 x96 x96) x104) (and (= (x132 x50 x50) x141) (= x37 (x132 x96 x50)))) (= (x132 x104 x96) x50))))
(assert (not (and (and (and (= (x132 x37 x50) x104) (= x96 (x132 x50 x50))) (= x141 (x132 x37 x37))) (= x50 (x132 x141 x37)))))
(assert (not (and (= (x132 x96 x104) x37) (and (and (= x50 (x132 x37 x37)) (= (x132 x104 x37) x141)) (= x96 (x132 x104 x104))))))
(assert (let ((x9 (x132 x96 x37)) (x157 (x132 x37 x96)) (x124 (x132 x37 x141)) (x144 (x132 x37 x37)) (x33 (x132 x50 x141)) (x76 (x132 x50 x37)) (x123 (x132 x104 x104)) (x28 (x132 x104 x50)) (x136 (x132 x50 x96)) (x65 (x132 x96 x104)) (x83 (x132 x50 x50)) (x16 (x132 x96 x141)) (x79 (x132 x50 x104)) (x19 (x132 x141 x50)) (x112 (x132 x141 x141)) (x61 (x132 x141 x37)) (x153 (x132 x141 x104)) (x125 (x132 x37 x104)) (x57 (x132 x104 x37)) (x121 (x132 x96 x50)) (x69 (x132 x37 x50)) (x48 (x132 x141 x96)) (x88 (x132 x96 x96)) (x78 (x132 x104 x141)) (x134 (x132 x104 x96))) (let ((x63 (= x141 x88)) (x139 (= x37 x78)) (x135 (= x141 x123)) (x77 (= x37 x136)) (x73 (= x136 x50)) (x118 (= x69 x37)) (x51 (= x9 x104)) (x146 (= x50 x65)) (x85 (= x28 x104)) (x133 (= x48 x50)) (x70 (= x9 x141)) (x4 (= x96 x144)) (x29 (= x50 x61)) (x138 (= x57 x104)) (x90 (= x19 x96)) (x154 (= x141 x65)) (x59 (= x141 x78)) (x27 (= x141 x125)) (x114 (= x37 x112)) (x93 (= x104 x61)) (x53 (= x96 x112)) (x38 (= x96 x123)) (x74 (= x37 x16)) (x3 (= x141 x57)) (x150 (= x65 x96)) (x149 (= x78 x96)) (x8 (= x96 x124)) (x7 (= x96 x9)) (x80 (= x16 x104)) (x89 (= x88 x96)) (x12 (= x33 x50)) (x40 (= x57 x50)) (x2 (= x104 x88)) (x31 (= x16 x141)) (x95 (= x48 x141)) (x98 (= x76 x141)) (x64 (= x134 x37)) (x24 (= x50 x153)) (x151 (= x79 x50)) (x5 (= x96 x125)) (x22 (= x78 x50)) (x17 (= x61 x96)) (x6 (= x50 x83)) (x119 (= x157 x96)) (x71 (= x61 x37)) (x152 (= x76 x96)) (x87 (= x50 x144)) (x115 (= x50 x28)) (x145 (= x141 x134)) (x23 (= x157 x37)) (x122 (= x65 x37)) (x91 (= x96 x57)) (x130 (= x104 x79)) (x109 (= x123 x37)) (x131 (= x104 x153)) (x140 (= x112 x104)) (x34 (= x141 x112)) (x82 (= x121 x50)) (x46 (= x141 x33)) (x68 (= x78 x104)) (x84 (= x88 x50)) (x36 (= x125 x50)) (x102 (= x65 x104)) (x60 (= x69 x96)) (x20 (= x134 x50)) (x41 (= x136 x104)) (x111 (= x50 x112)) (x26 (= x48 x104)) (x158 (= x83 x104)) (x99 (= x9 x37)) (x108 (= x79 x37)) (x120 (= x141 x144)) (x54 (= x141 x83)) (x56 (= x33 x104)) (x49 (= x50 x69)) (x86 (= x19 x141)) (x110 (= x104 x157)) (x52 (= x124 x50)) (x147 (= x96 x136)) (x129 (= x50 x16)) (x113 (= x48 x96)) (x13 (= x141 x153)) (x25 (= x104 x121)) (x92 (= x104 x19)) (x67 (= x157 x141)) (x101 (= x153 x37)) (x66 (= x37 x83)) (x81 (= x50 x157)) (x142 (= x37 x19)) (x32 (= x124 x104)) (x128 (= x37 x57)) (x117 (= x141 x69)) (x126 (= x96 x134)) (x156 (= x104 x76)) (x18 (= x28 x96)) (x94 (= x123 x50)) (x43 (= x76 x37)) (x39 (= x79 x96)) (x30 (= x28 x141)) (x143 (= x96 x83)) (x107 (= x9 x50)) (x35 (= x79 x141)) (x11 (= x37 x121)) (x75 (= x50 x76)) (x1 (= x123 x104)) (x42 (= x37 x48)) (x55 (= x96 x153)) (x116 (= x33 x96)) (x10 (= x124 x141)) (x15 (= x37 x144)) (x155 (= x37 x124)) (x148 (= x144 x104)) (x97 (= x141 x121)) (x105 (= x104 x69)) (x62 (= x104 x125)) (x106 (= x141 x61)) (x14 (= x96 x121)) (x127 (= x134 x104)) (x137 (= x88 x37)) (x21 (= x37 x125)) (x44 (= x28 x37)) (x100 (= x50 x19)) (x45 (= x33 x37)) (x72 (= x16 x96)) (x58 (= x136 x141))) (and (and (and (and (and (and (and (or (or (or x30 (or x97 x54)) x86) x117) (or (or (or x35 (or x58 x54)) x46) x98)) (and (and (or (or x56 (or (or x41 x158) x130)) x156) (or (or x92 (or (or x158 x25) x85)) x105)) (and (and (or x152 (or x116 (or (or x143 x147) x39))) (or (or (or (or x143 x14) x18) x90) x60)) (and (or (or x100 (or x115 (or x82 x6))) x49) (or (or x12 (or (or x73 x6) x151)) x75))))) (and (or (or (or x108 (or x66 x77)) x45) x43) (or (or x142 (or (or x11 x66) x44)) x118))) (and (and (or (or x74 (or x122 (or x137 x11))) x99) (or (or (or (or x77 x137) x64) x42) x23)) (and (and (and (or (or x26 (or (or x2 x41) x127)) x110) (or (or (or (or x2 x25) x102) x80) x51)) (and (and (or (or (or x20 (or x73 x84)) x133) x81) (or (or (or x146 (or x82 x84)) x129) x107)) (and (or x7 (or x72 (or x150 (or x89 x14)))) (or x119 (or (or x126 (or x89 x147)) x113))))) (and (or x70 (or x31 (or (or x97 x63) x154))) (or x67 (or (or (or x63 x58) x145) x95)))))) (and (and (or (or (or x109 (or x122 x108)) x101) x21) (or (or x139 (or (or x64 x44) x109)) x128)) (and (and (and (and (or (or x55 (or (or x39 x150) x38)) x5) (or (or (or x38 (or x18 x126)) x149) x91)) (and (or x36 (or (or (or x151 x146) x94) x24)) (or (or (or (or x20 x115) x94) x22) x40))) (and (or x138 (or (or (or x127 x85) x1) x68)) (or (or x131 (or (or x130 x102) x1)) x62))) (and (or (or (or (or x35 x154) x135) x13) x27) (or (or (or x135 (or x30 x145)) x59) x3))))) (and (and (or (or (or x101 (or x42 x142)) x114) x71) (or x155 (or x114 (or (or x45 x74) x139)))) (and (and (and (or x93 (or x140 (or x131 (or x26 x92)))) (or (or (or x68 (or x56 x80)) x140) x32)) (and (and (or x17 (or x53 (or (or x90 x113) x55))) (or (or x53 (or x149 (or x72 x116))) x8)) (and (or x29 (or x111 (or x24 (or x100 x133)))) (or x52 (or (or x22 (or x12 x129)) x111))))) (and (or (or (or x13 (or x95 x86)) x34) x106) (or x10 (or x34 (or x59 (or x46 x31)))))))) (and (and (or x15 (or (or (or x99 x43) x128) x71)) (or x15 (or x155 (or (or x118 x23) x21)))) (and (and (or (or (or (or x117 x67) x27) x10) x120) (or x120 (or x106 (or (or x98 x70) x3)))) (and (and (or x148 (or (or (or x51 x156) x138) x93)) (or (or (or (or x110 x105) x62) x32) x148)) (and (and (or x87 (or (or (or x75 x107) x40) x29)) (or x87 (or (or x36 (or x81 x49)) x52))) (and (or (or (or (or x7 x152) x91) x17) x4) (or (or x8 (or x5 (or x60 x119))) x4))))))))))
(assert (not (and (= x141 (x132 x96 x104)) (and (= (x132 x104 x104) x96) (and (= x50 (x132 x141 x141)) (= x37 (x132 x104 x141)))))))
(assert (not (and (and (and (= x96 (x132 x50 x50)) (= x37 (x132 x141 x50))) (= (x132 x141 x141) x104)) (= (x132 x104 x141) x50))))
(assert (not (and (= (x132 x50 x96) x141) (and (and (= (x132 x141 x141) x104) (= (x132 x96 x141) x37)) (= (x132 x96 x96) x50)))))
(assert (not (and (= (x132 x50 x96) x104) (and (= x50 (x132 x96 x96)) (and (= (x132 x96 x104) x141) (= x37 (x132 x104 x104)))))))
(assert (not (and (and (and (= x141 (x132 x37 x96)) (= x50 (x132 x96 x96))) (= x104 (x132 x37 x37))) (= x96 (x132 x104 x37)))))
(assert (not (and (= (x132 x141 x37) x96) (and (and (= x50 (x132 x37 x96)) (= (x132 x96 x96) x104)) (= (x132 x37 x37) x141)))))
(assert (not (and (and (and (= (x132 x50 x104) x141) (= x96 (x132 x104 x104))) (= (x132 x50 x50) x37)) (= (x132 x37 x50) x104))))
(assert (not (and (= (x132 x37 x104) x50) (and (= x37 (x132 x104 x104)) (and (= x141 (x132 x104 x50)) (= (x132 x50 x50) x96))))))
(assert (let ((x76 (x132 x50 x96)) (x89 (x132 x141 x37)) (x121 (x132 x104 x96)) (x73 (x132 x50 x141)) (x16 (x132 x50 x37)) (x84 (x132 x96 x141)) (x33 (x132 x37 x50)) (x65 (x132 x37 x141)) (x69 (x132 x50 x104)) (x19 (x132 x37 x96)) (x134 (x132 x37 x37)) (x14 (x132 x104 x141)) (x158 (x132 x96 x104)) (x28 (x132 x141 x96)) (x143 (x132 x96 x96)) (x82 (x132 x37 x104)) (x147 (x132 x104 x37)) (x136 (x132 x104 x50)) (x83 (x132 x96 x50)) (x88 (x132 x141 x141)) (x6 (x132 x50 x50)) (x79 (x132 x141 x50)) (x9 (x132 x96 x37)) (x54 (x132 x104 x104)) (x66 (x132 x141 x104))) (and (and (and (not (= x134 x65)) (and (not (= x82 x134)) (and (and (and (and (not (= x82 x19)) (and (not (= x33 x134)) (and (not (= x65 x33)) (and (not (= x33 x19)) (not (= x82 x33)))))) (not (= x19 x65))) (not (= x19 x134))) (not (= x82 x65))))) (and (and (and (not (= x14 x147)) (and (not (= x147 x54)) (and (and (not (= x147 x121)) (and (and (and (not (= x147 x136)) (and (not (= x136 x14)) (and (not (= x121 x136)) (not (= x136 x54))))) (not (= x54 x121))) (not (= x14 x121)))) (not (= x14 x54))))) (and (and (not (= x84 x9)) (and (not (= x158 x9)) (and (not (= x84 x158)) (and (not (= x143 x9)) (and (and (and (and (and (not (= x143 x83)) (not (= x83 x158))) (not (= x84 x83))) (not (= x9 x83))) (not (= x158 x143))) (not (= x143 x84))))))) (and (not (= x16 x73)) (and (not (= x69 x16)) (and (and (and (and (and (not (= x6 x16)) (and (and (not (= x76 x6)) (not (= x69 x6))) (not (= x73 x6)))) (not (= x76 x69))) (not (= x76 x73))) (not (= x16 x76))) (not (= x73 x69))))))) (and (and (not (= x66 x89)) (and (and (not (= x28 x89)) (and (and (and (and (and (not (= x66 x79)) (not (= x79 x28))) (not (= x88 x79))) (not (= x79 x89))) (not (= x66 x28))) (not (= x88 x28)))) (not (= x66 x88)))) (not (= x88 x89))))) (and (and (and (not (= x134 x147)) (and (not (= x89 x147)) (and (and (not (= x9 x89)) (and (and (and (not (= x89 x16)) (and (not (= x9 x16)) (not (= x16 x147)))) (not (= x16 x134))) (not (= x9 x147)))) (not (= x134 x9))))) (not (= x134 x89))) (and (and (and (and (not (= x14 x88)) (and (and (and (and (not (= x65 x73)) (and (not (= x73 x88)) (and (not (= x73 x84)) (not (= x73 x14))))) (not (= x84 x14))) (not (= x88 x84))) (not (= x84 x65)))) (not (= x14 x65))) (not (= x65 x88))) (and (and (and (not (= x82 x54)) (and (and (not (= x82 x158)) (and (not (= x66 x158)) (and (and (and (and (not (= x158 x69)) (not (= x54 x69))) (not (= x66 x69))) (not (= x69 x82))) (not (= x158 x54))))) (not (= x54 x66)))) (not (= x82 x66))) (and (and (not (= x19 x28)) (and (not (= x19 x121)) (and (and (not (= x19 x143)) (and (not (= x28 x143)) (and (and (and (not (= x76 x28)) (and (not (= x76 x121)) (not (= x143 x76)))) (not (= x76 x19))) (not (= x121 x143))))) (not (= x121 x28))))) (and (and (not (= x136 x33)) (and (and (and (not (= x79 x83)) (and (and (and (not (= x79 x6)) (and (not (= x83 x6)) (not (= x136 x6)))) (not (= x6 x33))) (not (= x136 x83)))) (not (= x33 x83))) (not (= x136 x79)))) (not (= x33 x79))))))))))
(assert (not (and (and (and (= (x132 x141 x141) x104) (= (x132 x50 x141) x37)) (= x96 (x132 x50 x50))) (= (x132 x96 x50) x141))))
(assert (not (and (= x104 (x132 x141 x96)) (and (and (= x37 (x132 x96 x104)) (= x50 (x132 x104 x104))) (= (x132 x96 x96) x141)))))
(assert (not (and (and (and (= (x132 x37 x104) x141) (= x50 (x132 x104 x104))) (= (x132 x37 x37) x96)) (= (x132 x96 x37) x104))))
(assert (not (and (= x104 (x132 x37 x96)) (and (= x37 (x132 x96 x96)) (and (= (x132 x96 x104) x50) (= (x132 x104 x104) x141))))))
(assert (not (and (= x50 (x132 x104 x96)) (and (= x104 (x132 x96 x96)) (and (= (x132 x50 x50) x37) (= x141 (x132 x96 x50)))))))
(assert (not (and (= (x132 x104 x37) x141) (and (= x104 (x132 x37 x37)) (and (= (x132 x141 x141) x50) (= x96 (x132 x37 x141)))))))
(assert (not (and (= (x132 x141 x37) x50) (and (and (= (x132 x37 x50) x96) (= x104 (x132 x50 x50))) (= x141 (x132 x37 x37))))))
(assert (not (and (and (and (= x96 (x132 x37 x37)) (= x50 (x132 x141 x37))) (= x104 (x132 x141 x141))) (= x37 (x132 x104 x141)))))
(assert (not (and (and (and (= (x132 x104 x50) x37) (= (x132 x50 x50) x96)) (= x141 (x132 x104 x104))) (= (x132 x141 x104) x50))))
(assert (not (and (= (x132 x50 x96) x141) (and (= x50 (x132 x96 x96)) (and (= (x132 x96 x141) x104) (= x37 (x132 x141 x141)))))))
(assert (not (and (= x96 (x132 x104 x37)) (and (and (= (x132 x96 x96) x141) (= x50 (x132 x37 x96))) (= x104 (x132 x37 x37))))))
(assert (not (and (= x50 (x132 x96 x37)) (and (and (= x141 (x132 x50 x50)) (= (x132 x37 x50) x104)) (= (x132 x37 x37) x96)))))
(assert (not (and (and (and (= x96 (x132 x37 x141)) (= x104 (x132 x141 x141))) (= (x132 x37 x37) x50)) (= x141 (x132 x50 x37)))))
(assert (not (and (= x104 (x132 x141 x37)) (and (= (x132 x37 x37) x141) (and (= x96 (x132 x104 x104)) (= x50 (x132 x37 x104)))))))
(assert (not (and (and (= x141 (x132 x50 x50)) (and (= (x132 x104 x104) x96) (= x37 (x132 x50 x104)))) (= x104 (x132 x141 x50)))))
(assert (not (and (= x37 (x132 x104 x141)) (and (and (= x96 (x132 x141 x37)) (= x50 (x132 x37 x37))) (= x104 (x132 x141 x141))))))
(assert (not (and (and (and (= x104 (x132 x141 x37)) (= x96 (x132 x37 x37))) (= (x132 x141 x141) x50)) (= (x132 x50 x141) x37))))
(assert (not (and (and (and (= (x132 x96 x141) x37) (= x50 (x132 x141 x141))) (= x104 (x132 x96 x96))) (= x141 (x132 x104 x96)))))
(assert (not (and (= (x132 x37 x141) x96) (and (= x37 (x132 x141 x141)) (and (= (x132 x96 x96) x50) (= x104 (x132 x141 x96)))))))
(assert (not (and (and (and (= (x132 x104 x141) x50) (= (x132 x141 x141) x37)) (= x96 (x132 x104 x104))) (= x141 (x132 x96 x104)))))
(assert (not (and (and (and (= x96 (x132 x104 x104)) (= (x132 x141 x104) x50)) (= x37 (x132 x141 x141))) (= (x132 x37 x141) x104))))
(assert (not (and (and (= x141 (x132 x104 x104)) (and (= x37 (x132 x104 x96)) (= x50 (x132 x96 x96)))) (= x96 (x132 x141 x104)))))
(assert (not (and (= x50 (x132 x96 x141)) (and (= (x132 x141 x141) x96) (and (= (x132 x141 x50) x104) (= x37 (x132 x50 x50)))))))
(assert (let ((x158 (x132 x104 x96)) (x14 (x132 x141 x104)) (x121 (x132 x96 x104)) (x84 (x132 x141 x96)) (x65 (x132 x141 x37)) (x33 (x132 x50 x37)) (x19 (x132 x96 x37)) (x54 (x132 x104 x104)) (x16 (x132 x37 x50)) (x69 (x132 x104 x50)) (x79 (x132 x50 x141)) (x66 (x132 x104 x141)) (x88 (x132 x141 x141)) (x9 (x132 x37 x96)) (x73 (x132 x141 x50)) (x89 (x132 x37 x141)) (x82 (x132 x104 x37)) (x6 (x132 x50 x50)) (x76 (x132 x96 x50)) (x28 (x132 x96 x141)) (x147 (x132 x37 x104)) (x136 (x132 x50 x104)) (x143 (x132 x96 x96)) (x83 (x132 x50 x96)) (x134 (x132 x37 x37))) (and (and (and (and (and (and (and (and (or (or (or (= x6 x104) (or (= x6 x96) (= x6 x50))) (= x141 x6)) (= x6 x37)) (or (= x83 x37) (or (= x141 x83) (or (= x83 x104) (or (= x83 x50) (= x96 x83)))))) (or (or (or (= x136 x104) (or (= x136 x96) (= x50 x136))) (= x141 x136)) (= x37 x136))) (or (or (or (= x104 x79) (or (= x79 x50) (= x79 x96))) (= x79 x141)) (= x79 x37))) (or (= x33 x37) (or (or (= x104 x33) (or (= x96 x33) (= x50 x33))) (= x33 x141)))) (and (or (= x19 x37) (or (= x141 x19) (or (or (= x19 x96) (= x19 x50)) (= x104 x19)))) (and (and (or (or (= x141 x121) (or (= x104 x121) (or (= x121 x96) (= x50 x121)))) (= x37 x121)) (and (or (= x37 x143) (or (= x141 x143) (or (= x104 x143) (or (= x143 x50) (= x143 x96))))) (or (= x76 x37) (or (= x76 x141) (or (= x76 x104) (or (= x76 x50) (= x96 x76))))))) (or (or (= x141 x28) (or (= x104 x28) (or (= x96 x28) (= x50 x28)))) (= x28 x37))))) (and (or (or (or (= x104 x82) (or (= x50 x82) (= x82 x96))) (= x82 x141)) (= x37 x82)) (and (or (= x66 x37) (or (= x141 x66) (or (= x66 x104) (or (= x96 x66) (= x50 x66))))) (and (or (or (= x141 x54) (or (or (= x54 x96) (= x50 x54)) (= x54 x104))) (= x54 x37)) (and (or (or (or (or (= x158 x96) (= x158 x50)) (= x104 x158)) (= x158 x141)) (= x37 x158)) (or (= x37 x69) (or (or (= x69 x104) (or (= x96 x69) (= x69 x50))) (= x141 x69)))))))) (and (and (and (and (or (or (= x141 x84) (or (= x104 x84) (or (= x84 x50) (= x96 x84)))) (= x84 x37)) (or (or (= x141 x73) (or (= x73 x104) (or (= x73 x50) (= x73 x96)))) (= x37 x73))) (or (= x14 x37) (or (= x14 x141) (or (or (= x14 x96) (= x50 x14)) (= x104 x14))))) (or (= x88 x37) (or (or (or (= x88 x96) (= x88 x50)) (= x104 x88)) (= x88 x141)))) (or (= x65 x37) (or (or (= x104 x65) (or (= x65 x50) (= x96 x65))) (= x141 x65))))) (and (and (and (or (or (or (= x104 x147) (or (= x96 x147) (= x50 x147))) (= x141 x147)) (= x37 x147)) (and (or (or (= x141 x16) (or (= x16 x104) (or (= x16 x50) (= x16 x96)))) (= x37 x16)) (or (or (= x141 x9) (or (or (= x9 x50) (= x96 x9)) (= x104 x9))) (= x37 x9)))) (or (= x89 x37) (or (= x141 x89) (or (= x89 x104) (or (= x96 x89) (= x50 x89)))))) (or (= x134 x37) (or (or (or (= x96 x134) (= x134 x50)) (= x134 x104)) (= x141 x134)))))))
(assert (not (and (and (= (x132 x37 x37) x96) (and (= (x132 x141 x141) x50) (= (x132 x37 x141) x104))) (= (x132 x96 x37) x141))))
(assert (not (and (and (= x96 (x132 x50 x50)) (and (= (x132 x50 x104) x141) (= x37 (x132 x104 x104)))) (= x104 (x132 x96 x50)))))
(assert (not (and (= x96 (x132 x37 x50)) (and (= (x132 x50 x50) x37) (and (= x141 (x132 x50 x96)) (= x104 (x132 x96 x96)))))))
(assert (not (and (and (= x96 (x132 x50 x50)) (and (= x141 (x132 x104 x104)) (= (x132 x50 x104) x37))) (= x104 (x132 x96 x50)))))
(assert (not (and (= x141 (x132 x104 x50)) (and (= (x132 x50 x50) x104) (and (= (x132 x50 x141) x96) (= x37 (x132 x141 x141)))))))
(assert (not (and (= (x132 x50 x104) x141) (and (= (x132 x104 x104) x50) (and (= (x132 x104 x141) x96) (= (x132 x141 x141) x37))))))
(assert (not (and (and (and (= (x132 x104 x104) x50) (= (x132 x141 x104) x37)) (= (x132 x141 x141) x96)) (= x104 (x132 x96 x141)))))
(assert (not (and (and (and (= (x132 x96 x96) x37) (= (x132 x104 x96) x141)) (= x50 (x132 x104 x104))) (= x96 (x132 x50 x104)))))
(assert (not (and (and (= (x132 x37 x37) x104) (and (= (x132 x37 x50) x96) (= x141 (x132 x50 x50)))) (= (x132 x104 x37) x50))))
(assert (not (and (= (x132 x37 x50) x96) (and (= (x132 x50 x50) x37) (and (= x104 (x132 x50 x96)) (= x141 (x132 x96 x96)))))))
(assert (not (and (= (x132 x96 x50) x141) (and (and (= (x132 x141 x141) x37) (= (x132 x50 x141) x104)) (= x96 (x132 x50 x50))))))
(assert (not (and (and (and (= x37 (x132 x50 x141)) (= (x132 x141 x141) x96)) (= (x132 x50 x50) x104)) (= x141 (x132 x104 x50)))))
(assert (not (and (and (= x104 (x132 x37 x37)) (and (= x96 (x132 x141 x141)) (= x50 (x132 x37 x141)))) (= x141 (x132 x104 x37)))))
(assert (not (and (and (= (x132 x50 x50) x104) (and (= x141 (x132 x50 x96)) (= x37 (x132 x96 x96)))) (= x96 (x132 x104 x50)))))
(assert (not (and (= (x132 x104 x141) x50) (and (and (= (x132 x50 x50) x37) (= (x132 x141 x50) x96)) (= x104 (x132 x141 x141))))))
(assert (not (and (and (and (= x104 (x132 x37 x37)) (= (x132 x141 x37) x96)) (= x50 (x132 x141 x141))) (= (x132 x50 x141) x37))))
(assert (not (and (and (= (x132 x104 x104) x37) (and (= (x132 x50 x50) x141) (= x96 (x132 x104 x50)))) (= x50 (x132 x37 x104)))))
(assert (not (and (and (and (= (x132 x96 x37) x141) (= x50 (x132 x37 x37))) (= (x132 x96 x96) x104)) (= (x132 x104 x96) x37))))
(assert (not (and (and (and (= (x132 x37 x37) x104) (= (x132 x50 x37) x141)) (= (x132 x50 x50) x96)) (= (x132 x96 x50) x37))))
(assert (not (and (and (and (= x96 (x132 x37 x104)) (= x50 (x132 x104 x104))) (= (x132 x37 x37) x141)) (= (x132 x141 x37) x104))))
(assert (not (and (= x96 (x132 x141 x104)) (and (= (x132 x104 x104) x141) (and (= x50 (x132 x104 x96)) (= (x132 x96 x96) x37))))))
(assert (not (and (and (= x50 (x132 x104 x104)) (and (= x37 (x132 x104 x141)) (= x96 (x132 x141 x141)))) (= x141 (x132 x50 x104)))))
(assert (not (and (and (= x104 (x132 x96 x96)) (and (= x50 (x132 x96 x37)) (= x141 (x132 x37 x37)))) (= x37 (x132 x104 x96)))))
(assert (not (and (and (= x37 (x132 x50 x50)) (and (= (x132 x141 x141) x104) (= (x132 x50 x141) x96))) (= (x132 x37 x50) x141))))
(assert (not (and (= x104 (x132 x50 x141)) (and (= (x132 x141 x141) x50) (and (= x37 (x132 x141 x104)) (= x96 (x132 x104 x104)))))))
(assert (let ((x20 (x132 x96 x96)) (x126 (x132 x141 x96)) (x127 (x132 x141 x104)) (x25 (x132 x50 x96)) (x48 (x132 x50 x50)) (x122 (x132 x37 x141)) (x97 (x132 x104 x50)) (x18 (x132 x96 x141)) (x85 (x132 x104 x141)) (x77 (x132 x37 x50)) (x130 (x132 x104 x37)) (x123 (x132 x96 x37)) (x102 (x132 x37 x104)) (x153 (x132 x104 x104)) (x90 (x132 x37 x37)) (x108 (x132 x141 x37)) (x2 (x132 x50 x104)) (x146 (x132 x96 x104)) (x44 (x132 x141 x141)) (x94 (x132 x104 x96)) (x58 (x132 x50 x141)) (x41 (x132 x96 x50)) (x78 (x132 x37 x96)) (x11 (x132 x50 x37)) (x63 (x132 x141 x50))) (let ((x33 (not (= x50 x97))) (x54 (not (= x50 x18))) (x118 (not (= x77 x37))) (x38 (not (= x96 x146))) (x137 (not (= x41 x96))) (x59 (not (= x104 x102))) (x83 (not (= x41 x50))) (x147 (not (= x50 x122))) (x66 (not (= x127 x50))) (x40 (not (= x58 x141))) (x151 (not (= x20 x96))) (x101 (not (= x104 x90))) (x91 (not (= x102 x141))) (x100 (not (= x96 x11))) (x16 (not (= x102 x50))) (x135 (not (= x85 x96))) (x1 (not (= x96 x63))) (x9 (not (= x130 x50))) (x124 (not (= x146 x104))) (x157 (not (= x96 x48))) (x13 (not (= x104 x11))) (x68 (not (= x104 x127))) (x81 (not (= x2 x141))) (x114 (not (= x20 x141))) (x128 (not (= x122 x37))) (x158 (not (= x126 x50))) (x64 (not (= x96 x44))) (x72 (not (= x97 x104))) (x92 (not (= x153 x104))) (x60 (not (= x127 x141))) (x62 (not (= x48 x37))) (x121 (not (= x146 x50))) (x6 (not (= x48 x50))) (x84 (not (= x50 x77))) (x56 (not (= x126 x104))) (x31 (not (= x104 x123))) (x34 (not (= x104 x130))) (x154 (not (= x96 x127))) (x55 (not (= x48 x104))) (x51 (not (= x20 x37))) (x112 (not (= x41 x104))) (x45 (not (= x48 x141))) (x69 (not (= x50 x58))) (x131 (not (= x58 x104))) (x152 (not (= x141 x78))) (x27 (not (= x63 x37))) (x28 (not (= x153 x50))) (x7 (not (= x141 x123))) (x133 (not (= x78 x96))) (x113 (not (= x90 x96))) (x61 (not (= x104 x25))) (x105 (not (= x108 x141))) (x23 (not (= x11 x37))) (x52 (not (= x146 x141))) (x134 (not (= x50 x90))) (x42 (not (= x108 x104))) (x93 (not (= x2 x37))) (x86 (not (= x104 x44))) (x145 (not (= x126 x96))) (x53 (not (= x104 x94))) (x109 (not (= x96 x77))) (x35 (not (= x96 x18))) (x36 (not (= x141 x94))) (x32 (not (= x37 x41))) (x95 (not (= x104 x77))) (x150 (not (= x94 x96))) (x88 (not (= x50 x78))) (x10 (not (= x58 x37))) (x73 (not (= x50 x44))) (x116 (not (= x104 x20))) (x155 (not (= x37 x123))) (x75 (not (= x141 x153))) (x117 (not (= x37 x146))) (x148 (not (= x94 x37))) (x98 (not (= x126 x37))) (x15 (not (= x37 x90))) (x156 (not (= x37 x25))) (x110 (not (= x141 x90))) (x76 (not (= x2 x50))) (x4 (not (= x141 x122))) (x107 (not (= x63 x141))) (x119 (not (= x141 x85))) (x21 (not (= x78 x37))) (x142 (not (= x122 x104))) (x138 (not (= x37 x97))) (x8 (not (= x77 x141))) (x129 (not (= x96 x130))) (x87 (not (= x18 x141))) (x99 (not (= x130 x37))) (x125 (not (= x96 x153))) (x139 (not (= x141 x25))) (x24 (not (= x96 x123))) (x14 (not (= x50 x11))) (x149 (not (= x2 x104))) (x46 (not (= x104 x78))) (x39 (not (= x2 x96))) (x30 (not (= x58 x96))) (x5 (not (= x44 x141))) (x43 (not (= x37 x102))) (x82 (not (= x85 x50))) (x22 (not (= x122 x96))) (x140 (not (= x104 x85))) (x57 (not (= x97 x96))) (x26 (not (= x104 x63))) (x3 (not (= x127 x37))) (x144 (not (= x11 x141))) (x19 (not (= x50 x63))) (x89 (not (= x50 x108))) (x29 (not (= x141 x126))) (x67 (not (= x37 x153))) (x12 (not (= x96 x102))) (x70 (not (= x18 x37))) (x65 (not (= x50 x123))) (x115 (not (= x96 x25))) (x80 (not (= x18 x104))) (x136 (not (= x50 x25))) (x17 (not (= x130 x141))) (x111 (not (= x96 x108))) (x143 (not (= x50 x94))) (x79 (not (= x50 x20))) (x120 (not (= x37 x44))) (x71 (not (= x108 x37))) (x49 (not (= x141 x97))) (x106 (not (= x85 x37))) (x74 (not (= x141 x41)))) (or (and (and (and (or x128 x71) (and (or x43 x99) (and (or x118 x23) (or x155 x21)))) (or x15 x15)) (and (and (and (and (or x106 x3) (and (and (or x138 x93) (or x148 x117)) (or x67 x67))) (or x43 x99)) (and (and (or x118 x23) (and (and (and (or x62 x62) (or x156 x32)) (or x138 x93)) (or x27 x10))) (and (or x155 x21) (and (or x70 x98) (and (and (or x32 x156) (or x51 x51)) (or x117 x148)))))) (and (or x128 x71) (and (or x120 x120) (and (and (or x70 x98) (or x10 x27)) (or x3 x106)))))) (or (or (or (and (and (and (or x89 x147) (and (and (or x66 x82) (and (or x158 x54) (or x69 x19))) (or x73 x73))) (and (and (and (or x14 x84) (and (and (and (or x6 x6) (or x83 x136)) (or x33 x76)) (or x19 x69))) (and (and (and (or x143 x121) (and (or x79 x79) (or x136 x83))) (or x54 x158)) (or x88 x65))) (and (and (or x66 x82) (and (and (or x143 x121) (or x33 x76)) (or x28 x28))) (or x9 x16)))) (and (or x134 x134) (and (and (or x9 x16) (and (or x84 x14) (or x88 x65))) (or x89 x147)))) (and (and (and (and (and (and (or x1 x30) (and (and (or x157 x157) (or x137 x115)) (or x39 x57))) (or x100 x109)) (and (and (and (and (or x151 x151) (or x115 x137)) (or x150 x38)) (or x35 x145)) (or x133 x24))) (and (or x12 x129) (and (and (or x125 x125) (and (or x57 x39) (or x150 x38))) (or x154 x135)))) (and (or x111 x22) (and (and (or x154 x135) (and (or x35 x145) (or x1 x30))) (or x64 x64)))) (and (or x113 x113) (and (and (or x12 x129) (and (or x133 x24) (or x109 x100))) (or x111 x22))))) (and (and (and (or x142 x42) (and (or x34 x59) (and (or x13 x95) (or x46 x31)))) (or x101 x101)) (and (and (and (or x34 x59) (and (and (and (or x124 x53) (or x72 x149)) (or x92 x92)) (or x140 x68))) (and (and (or x95 x13) (and (and (or x149 x72) (and (or x112 x61) (or x55 x55))) (or x131 x26))) (and (or x31 x46) (and (or x80 x56) (and (and (or x116 x116) (or x112 x61)) (or x124 x53)))))) (and (or x142 x42) (and (and (and (or x131 x26) (or x80 x56)) (or x68 x140)) (or x86 x86)))))) (and (and (and (or x4 x105) (and (or x5 x5) (and (or x119 x60) (and (or x87 x29) (or x40 x107))))) (and (and (and (and (or x29 x87) (and (and (or x74 x139) (or x114 x114)) (or x52 x36))) (or x7 x152)) (and (and (or x107 x40) (and (and (or x139 x74) (or x45 x45)) (or x49 x81))) (or x8 x144))) (and (or x91 x17) (and (or x60 x119) (and (or x75 x75) (and (or x81 x49) (or x36 x52))))))) (and (and (and (or x17 x91) (and (or x7 x152) (or x144 x8))) (or x105 x4)) (or x110 x110))))))))
(assert (not (and (and (= x50 (x132 x96 x96)) (and (= x104 (x132 x96 x37)) (= (x132 x37 x37) x141))) (= x37 (x132 x50 x96)))))
(assert (not (and (= x141 (x132 x50 x37)) (and (= x50 (x132 x37 x37)) (and (= (x132 x37 x141) x104) (= x96 (x132 x141 x141)))))))
(assert (not (and (= (x132 x37 x104) x96) (and (and (= (x132 x104 x96) x141) (= (x132 x96 x96) x50)) (= (x132 x104 x104) x37)))))
(assert (let ((x79 (x132 x141 x141)) (x33 (x132 x37 x37)) (x136 (x132 x104 x104)) (x83 (x132 x96 x96)) (x6 (x132 x50 x50))) (or (and (not (= x37 x33)) (and (not (= x79 x37)) (and (and (not (= x6 x37)) (not (= x37 x83))) (not (= x37 x136))))) (or (or (and (not (= x104 x33)) (and (and (and (not (= x104 x6)) (not (= x83 x104))) (not (= x104 x136))) (not (= x104 x79)))) (or (and (not (= x33 x96)) (and (and (not (= x136 x96)) (and (not (= x83 x96)) (not (= x96 x6)))) (not (= x79 x96)))) (and (and (and (not (= x50 x136)) (and (not (= x50 x6)) (not (= x83 x50)))) (not (= x79 x50))) (not (= x50 x33))))) (and (not (= x141 x33)) (and (not (= x79 x141)) (and (not (= x141 x136)) (and (not (= x6 x141)) (not (= x141 x83))))))))))
(check-sat)
(exit)
